Running HiGHS 1.4.2 [date: 1970-01-01, git hash: f797c1ab6]
Copyright (c) 2022 ERGO-Code under MIT licence terms
Number of PL entries in BOUNDS section is 1
Number of BV entries in BOUNDS section is 4813
MIP  mp_h1_od_d0.85_JXwJf_0 has 8101 rows; 4818 cols; 29363 nonzeros; 4816 integer variables

Presolve is switched off

Solving MIP model with:
   8101 rows
   4818 cols (4813 binary, 3 integer, 0 implied int., 2 continuous)
   29363 nonzeros

        Nodes      |    B&B Tree     |            Objective Bounds              |  Dynamic Constraints |       Work      
     Proc. InQueue |  Leaves   Expl. | BestBound       BestSol              Gap |   Cuts   InLp Confl. | LpIters     Time

         0       0         0   0.00%   -2005.913293    inf                  inf        0      0      0         0     0.0s
 R       0       0         0   0.00%   -60.94863939    -50.786939        20.01%        0      0      0      1125     0.2s

Solving report
  Status            Optimal
  Primal bound      -59.287127
  Dual bound        -59.287127
  Gap               0% (tolerance: 0.01%)
  Solution status   feasible
                    -59.287127 (objective)
                    0 (bound viol.)
                    0 (int. viol.)
                    0 (row viol.)
  Timing            1.57 (total)
                    0.01 (presolve)
                    0.00 (postsolve)
  Nodes             1
  LP iterations     2064 (total)
                    0 (strong br.)
                    843 (separation)
                    96 (heuristics)
